9
0, 162, 825, 636, 953, 465, 466, 848, 1186
162, 0, 703, 482, 803, 470, 312, 703, 1051
825, 703, 0, 694, 293, 587, 432, 193, 374
636, 482, 694, 0, 595, 844, 348, 564, 908
953, 803, 293, 595, 0, 835, 490, 122, 314
465, 470, 587, 844, 835, 0, 511, 713, 954
466, 312, 432, 348, 490, 511, 0, 394, 751
848, 703, 193, 564, 122, 713, 394, 0, 362
1186, 1051, 374, 908, 314, 954, 751, 362, 0
